(set-logic ALL)
(declare-fun seed0_T_1 () Int)
(declare-fun seed0_T_2 () Bool)
(declare-fun seed0_var_0xINPUT_359595 () String)
(assert (and (or (>= seed0_T_1 (str.len seed0_var_0xINPUT_359595)) (>= (* seed0_T_1 seed0_T_1) (* seed0_T_1 seed0_T_1))) (or (= seed0_T_2 (= seed0_T_1 0)) (and (distinct (- seed0_T_1 565) (+ seed0_T_1 (- 510))) (> (* seed0_T_1 seed0_T_1) (mod seed0_T_1 seed0_T_1)))) (or seed0_T_2 (not (str.contains (str.++ seed0_var_0xINPUT_359595 "Yh8WqyXVSZlowLmPMsD") (str.++ seed0_var_0xINPUT_359595 "5rMPKivJhQNlVeES"))))))
(check-sat)
(exit)